Instance: /home/alberto/work/doct-ufrgs-thesis/mankowska2014/instances-HHCRSP/InstanzVNS_HCSRP_300_9.txt
Time limit: 7200
Working directory: ./run.zVWkKZ5C


Generating model and initial solution...
#######################################
### Exact MIP solver for the HHCRSP ###
#######################################
-- Instance file: /home/alberto/work/doct-ufrgs-thesis/mankowska2014/instances-HHCRSP/InstanzVNS_HCSRP_300_9.txt
-- Max threads: 1
-- Time limit: 200 seconds
-- Use initial solution: No
Trivial flow violations prevented generating 907205 variables.
Additional cuts are disabled.
Model exported.
SKIP_OPT flag set. Exiting.


Invoking CPLEX...

Welcome to IBM(R) ILOG(R) CPLEX(R) Interactive Optimizer 20.1.0.0
  with Simplex, Mixed Integer & Barrier Optimizers
5725-A06 5725-A29 5724-Y48 5724-Y49 5724-Y54 5724-Y55 5655-Y21
Copyright IBM Corp. 1988, 2020.  All Rights Reserved.

Type 'help' for a list of available commands.
Type 'help' followed by a command name for more
information on commands.

CPLEX> New value for seed to initialize the random number generator: 1
CPLEX> New value for time limit in seconds: 7200
CPLEX> Problem './run.zVWkKZ5C/model.lp' read.
Read time = 16.88 sec. (453.48 ticks)
CPLEX> Version identifier: 20.1.0.0 | 2020-11-10 | 9bedb6d68
CPXPARAM_RandomSeed                              1
CPXPARAM_TimeLimit                               7200
Tried aggregator 1 time.
MIP Presolve eliminated 36649 rows and 8023 columns.
MIP Presolve modified 7980 coefficients.
Reduced MIP has 1240580 rows, 989738 columns, and 25518440 nonzeros.
Reduced MIP has 983118 binaries, 0 generals, 0 SOSs, and 0 indicators.
Presolve time = 20.87 sec. (8810.07 ticks)
Probing time = 1.81 sec. (470.47 ticks)
Tried aggregator 1 time.
Detecting symmetries...
Reduced MIP has 1240580 rows, 989738 columns, and 25518440 nonzeros.
Reduced MIP has 983118 binaries, 0 generals, 0 SOSs, and 0 indicators.
Presolve time = 80.95 sec. (17464.77 ticks)
Probing time = 1.72 sec. (459.24 ticks)
